
Gurobi 11.0.3 (linux64) logging started Thu Nov 21 23:08:06 2024

Set parameter LogFile to value "/home/yihong/Coding/OR_SUC/SUC_results_bigM100000_thread4/case24_ieee_rts_theta0.5_epsilon0.05_gurobi_seed890000_num_gen100_N_WDR100_load_scaling_factor1_exact_T12quadra_cost.txt"
Set parameter TimeLimit to value 3600
Gurobi Optimizer version 11.0.3 build v11.0.3rc0 (linux64 - "Ubuntu 20.04.6 LTS")

CPU model: AMD EPYC 7532 32-Core Processor, instruction set [SSE2|AVX|AVX2]
Thread count: 64 physical cores, 128 logical processors, using up to 4 threads

Optimize a model with 28631 rows, 15081 columns and 662130 nonzeros
Model fingerprint: 0xe5ba67f0
Model has 1200 quadratic constraints
Variable types: 13781 continuous, 1300 integer (1300 binary)
Coefficient statistics:
  Matrix range     [1e-04, 1e+05]
  QMatrix range    [2e-03, 8e-03]
  QLMatrix range   [9e-02, 6e+01]
  Objective range  [1e+00, 1e+00]
  Bounds range     [1e+00, 1e+00]
  RHS range        [1e+00, 1e+05]
Presolve removed 23496 rows and 6503 columns
Presolve time: 0.19s
Presolved: 5135 rows, 8578 columns, 29037 nonzeros
Presolved model has 1200 quadratic constraint(s)
Variable types: 7308 continuous, 1270 integer (1270 binary)

Root relaxation: objective 2.286910e+04, 4344 iterations, 0.10 seconds (0.14 work units)

    Nodes    |    Current Node    |     Objective Bounds      |     Work
 Expl Unexpl |  Obj  Depth IntInf | Incumbent    BestBd   Gap | It/Node Time

     0     0 22869.0991    0   11          - 22869.0991      -     -    0s
     0     0 160152.066    0  490          - 160152.066      -     -    0s
     0     0 160462.445    0  487          - 160462.445      -     -    0s
     0     0 310105.264    0  355          - 310105.264      -     -    0s
     0     0 310117.062    0  167          - 310117.062      -     -    0s
     0     0 310246.921    0   87          - 310246.921      -     -    0s
     0     0 310247.156    0   87          - 310247.156      -     -    0s
     0     0 310247.581    0   87          - 310247.581      -     -    0s
     0     0 310248.587    0   87          - 310248.587      -     -    0s
     0     2 310248.587    0   87          - 310248.587      -     -    1s
H  271   542                    310604.03764 310251.099  0.11%  14.6    2s
*  271   542             100    310604.03764 310251.099  0.11%  14.6    2s
H  415   541                    310280.11455 310251.099  0.01%  12.5    2s
*  415   541              77    310280.11455 310251.099  0.01%  12.5    2s

Cutting planes:
  Gomory: 23
  Implied bound: 237
  MIR: 117
  Flow cover: 254
  Relax-and-lift: 7

Explored 617 nodes (18110 simplex iterations) in 2.60 seconds (3.20 work units)
Thread count was 4 (of 128 available processors)

Solution count 3: 310280 310280 310604 

Optimal solution found (tolerance 1.00e-03)
Warning: max constraint violation (1.0916e-07) exceeds tolerance
Best objective 3.102801145523e+05, best bound 3.102510988686e+05, gap 0.0094%
